c nIsolatedPIs 98
c maxPI 49
p cnf 553 1513
c gate 50 -10 -29 0
-10 -50 0
-29 -50 0
10 29 50 0
c gate 51 -24 -25 0
-24 -51 0
-25 -51 0
24 25 51 0
c gate 52 -34 -36 0
-34 -52 0
-36 -52 0
34 36 52 0
c gate 53 51 52 0
51 -53 0
52 -53 0
-51 -52 53 0
c gate 54 50 53 0
50 -54 0
53 -54 0
-50 -53 54 0
c gate 55 6 -44 0
6 -55 0
-44 -55 0
-6 44 55 0
c gate 56 -6 44 0
-6 -56 0
44 -56 0
6 -44 56 0
c gate 57 -55 -56 0
-55 -57 0
-56 -57 0
55 56 57 0
c gate 58 3 -6 0
3 -58 0
-6 -58 0
-3 6 58 0
c gate 59 -5 54 0
-5 -59 0
54 -59 0
5 -54 59 0
c gate 60 -58 59 0
-58 -60 0
59 -60 0
58 -59 60 0
c gate 61 58 -59 0
58 -61 0
-59 -61 0
-58 59 61 0
c gate 62 -60 -61 0
-60 -62 0
-61 -62 0
60 61 62 0
c gate 63 3 62 0
3 -63 0
62 -63 0
-3 -62 63 0
c gate 64 -3 -47 0
-3 -64 0
-47 -64 0
3 47 64 0
c gate 65 -49 64 0
-49 -65 0
64 -65 0
49 -64 65 0
c gate 66 -62 -65 0
-62 -66 0
-65 -66 0
62 65 66 0
c gate 67 -3 66 0
-3 -67 0
66 -67 0
3 -66 67 0
c gate 68 -63 -67 0
-63 -68 0
-67 -68 0
63 67 68 0
c gate 69 34 36 0
34 -69 0
36 -69 0
-34 -36 69 0
c gate 70 -44 -69 0
-44 -70 0
-69 -70 0
44 69 70 0
c gate 71 -53 -70 0
-53 -71 0
-70 -71 0
53 70 71 0
c gate 72 -51 -52 0
-51 -72 0
-52 -72 0
51 52 72 0
c gate 73 24 25 0
24 -73 0
25 -73 0
-24 -25 73 0
c gate 74 50 -73 0
50 -74 0
-73 -74 0
-50 73 74 0
c gate 75 -72 74 0
-72 -75 0
74 -75 0
72 -74 75 0
c gate 76 -71 75 0
-71 -76 0
75 -76 0
71 -75 76 0
c gate 77 68 76 0
68 -77 0
76 -77 0
-68 -76 77 0
c gate 78 3 -54 0
3 -78 0
-54 -78 0
-3 54 78 0
c gate 79 -77 -78 0
-77 -79 0
-78 -79 0
77 78 79 0
c gate 80 57 79 0
57 -80 0
79 -80 0
-57 -79 80 0
c gate 81 56 -76 0
56 -81 0
-76 -81 0
-56 76 81 0
c gate 82 -44 -66 0
-44 -82 0
-66 -82 0
44 66 82 0
c gate 83 54 82 0
54 -83 0
82 -83 0
-54 -82 83 0
c gate 84 -54 -82 0
-54 -84 0
-82 -84 0
54 82 84 0
c gate 85 44 66 0
44 -85 0
66 -85 0
-44 -66 85 0
c gate 86 6 -85 0
6 -86 0
-85 -86 0
-6 85 86 0
c gate 87 -84 86 0
-84 -87 0
86 -87 0
84 -86 87 0
c gate 88 -83 87 0
-83 -88 0
87 -88 0
83 -87 88 0
c gate 89 -81 -88 0
-81 -89 0
-88 -89 0
81 88 89 0
c gate 90 -3 -89 0
-3 -90 0
-89 -90 0
3 89 90 0
c gate 91 -80 -90 0
-80 -91 0
-90 -91 0
80 90 91 0
c gate 92 -6 76 0
-6 -92 0
76 -92 0
6 -76 92 0
c gate 93 3 -92 0
3 -93 0
-92 -93 0
-3 92 93 0
c gate 94 -79 93 0
-79 -94 0
93 -94 0
79 -93 94 0
c gate 95 91 -94 0
91 -95 0
-94 -95 0
-91 94 95 0
c gate 96 54 -95 0
54 -96 0
-95 -96 0
-54 95 96 0
c gate 97 -48 66 0
-48 -97 0
66 -97 0
48 -66 97 0
c gate 98 -44 -97 0
-44 -98 0
-97 -98 0
44 97 98 0
c gate 99 6 -98 0
6 -99 0
-98 -99 0
-6 98 99 0
c gate 100 -55 -68 0
-55 -100 0
-68 -100 0
55 68 100 0
c gate 101 -44 -48 0
-44 -101 0
-48 -101 0
44 48 101 0
c gate 102 100 101 0
100 -102 0
101 -102 0
-100 -101 102 0
c gate 103 -99 -102 0
-99 -103 0
-102 -103 0
99 102 103 0
c gate 104 27 95 0
27 -104 0
95 -104 0
-27 -95 104 0
c gate 105 103 104 0
103 -105 0
104 -105 0
-103 -104 105 0
c gate 106 3 105 0
3 -106 0
105 -106 0
-3 -105 106 0
c gate 107 -3 -103 0
-3 -107 0
-103 -107 0
3 103 107 0
c gate 108 -27 107 0
-27 -108 0
107 -108 0
27 -107 108 0
c gate 109 -91 108 0
-91 -109 0
108 -109 0
91 -108 109 0
c gate 110 -106 -109 0
-106 -110 0
-109 -110 0
106 109 110 0
c gate 111 24 -33 0
24 -111 0
-33 -111 0
-24 33 111 0
c gate 112 32 -111 0
32 -112 0
-111 -112 0
-32 111 112 0
c gate 113 -24 33 0
-24 -113 0
33 -113 0
24 -33 113 0
c gate 114 25 -30 0
25 -114 0
-30 -114 0
-25 30 114 0
c gate 115 -113 114 0
-113 -115 0
114 -115 0
113 -114 115 0
c gate 116 -112 115 0
-112 -116 0
115 -116 0
112 -115 116 0
c gate 117 -32 111 0
-32 -117 0
111 -117 0
32 -111 117 0
c gate 118 30 117 0
30 -118 0
117 -118 0
-30 -117 118 0
c gate 119 -25 -117 0
-25 -119 0
-117 -119 0
25 117 119 0
c gate 120 -118 -119 0
-118 -120 0
-119 -120 0
118 119 120 0
c gate 121 -116 120 0
-116 -121 0
120 -121 0
116 -120 121 0
c gate 122 6 121 0
6 -122 0
121 -122 0
-6 -121 122 0
c gate 123 26 -122 0
26 -123 0
-122 -123 0
-26 122 123 0
c gate 124 103 123 0
103 -124 0
123 -124 0
-103 -123 124 0
c gate 125 95 124 0
95 -125 0
124 -125 0
-95 -124 125 0
c gate 126 -103 -122 0
-103 -126 0
-122 -126 0
103 122 126 0
c gate 127 -26 55 0
-26 -127 0
55 -127 0
26 -55 127 0
c gate 128 121 127 0
121 -128 0
127 -128 0
-121 -127 128 0
c gate 129 -126 -128 0
-126 -129 0
-128 -129 0
126 128 129 0
c gate 130 47 -129 0
47 -130 0
-129 -130 0
-47 129 130 0
c gate 131 -98 -126 0
-98 -131 0
-126 -131 0
98 126 131 0
c gate 132 -44 -122 0
-44 -132 0
-122 -132 0
44 122 132 0
c gate 133 -131 -132 0
-131 -133 0
-132 -133 0
131 132 133 0
c gate 134 -130 -133 0
-130 -134 0
-133 -134 0
130 133 134 0
c gate 135 -95 -134 0
-95 -135 0
-134 -135 0
95 134 135 0
c gate 136 -125 -135 0
-125 -136 0
-135 -136 0
125 135 136 0
c gate 137 36 136 0
36 -137 0
136 -137 0
-36 -136 137 0
c gate 138 -110 137 0
-110 -138 0
137 -138 0
110 -137 138 0
c gate 139 -3 105 0
-3 -139 0
105 -139 0
3 -105 139 0
c gate 140 36 -139 0
36 -140 0
-139 -140 0
-36 139 140 0
c gate 141 27 103 0
27 -141 0
103 -141 0
-27 -103 141 0
c gate 142 -95 -107 0
-95 -142 0
-107 -142 0
95 107 142 0
c gate 143 -141 -142 0
-141 -143 0
-142 -143 0
141 142 143 0
c gate 144 -140 -143 0
-140 -144 0
-143 -144 0
140 143 144 0
c gate 145 -36 107 0
-36 -145 0
107 -145 0
36 -107 145 0
c gate 146 -136 145 0
-136 -146 0
145 -146 0
136 -145 146 0
c gate 147 -144 -146 0
-144 -147 0
-146 -147 0
144 146 147 0
c gate 148 -138 147 0
-138 -148 0
147 -148 0
138 -147 148 0
c gate 149 27 54 0
27 -149 0
54 -149 0
-27 -54 149 0
c gate 150 -49 -149 0
-49 -150 0
-149 -150 0
49 149 150 0
c gate 151 148 150 0
148 -151 0
150 -151 0
-148 -150 151 0
c gate 152 -27 49 0
-27 -152 0
49 -152 0
27 -49 152 0
c gate 153 -54 152 0
-54 -153 0
152 -153 0
54 -152 153 0
c gate 154 -76 -153 0
-76 -154 0
-153 -154 0
76 153 154 0
c gate 155 -151 154 0
-151 -155 0
154 -155 0
151 -154 155 0
c gate 156 -49 54 0
-49 -156 0
54 -156 0
49 -54 156 0
c gate 157 27 -156 0
27 -157 0
-156 -157 0
-27 156 157 0
c gate 158 76 -157 0
76 -158 0
-157 -158 0
-76 157 158 0
c gate 159 148 158 0
148 -159 0
158 -159 0
-148 -158 159 0
c gate 160 95 -159 0
95 -160 0
-159 -160 0
-95 159 160 0
c gate 161 -155 160 0
-155 -161 0
160 -161 0
155 -160 161 0
c gate 162 76 -95 0
76 -162 0
-95 -162 0
-76 95 162 0
c gate 163 49 162 0
49 -163 0
162 -163 0
-49 -162 163 0
c gate 164 148 163 0
148 -164 0
163 -164 0
-148 -163 164 0
c gate 165 -161 -164 0
-161 -165 0
-164 -165 0
161 164 165 0
c gate 166 24 165 0
24 -166 0
165 -166 0
-24 -165 166 0
c gate 167 96 166 0
96 -167 0
166 -167 0
-96 -166 167 0
c gate 168 -24 -165 0
-24 -168 0
-165 -168 0
24 165 168 0
c gate 169 -54 -168 0
-54 -169 0
-168 -169 0
54 168 169 0
c gate 170 95 -166 0
95 -170 0
-166 -170 0
-95 166 170 0
c gate 171 -169 170 0
-169 -171 0
170 -171 0
169 -170 171 0
c gate 172 -167 -171 0
-167 -172 0
-171 -172 0
167 171 172 0
c gate 173 25 -172 0
25 -173 0
-172 -173 0
-25 172 173 0
c gate 174 -54 95 0
-54 -174 0
95 -174 0
54 -95 174 0
c gate 175 51 -96 0
51 -175 0
-96 -175 0
-51 96 175 0
c gate 176 -174 175 0
-174 -176 0
175 -176 0
174 -175 176 0
c gate 177 -165 176 0
-165 -177 0
176 -177 0
165 -176 177 0
c gate 178 36 -177 0
36 -178 0
-177 -178 0
-36 177 178 0
c gate 179 -173 178 0
-173 -179 0
178 -179 0
173 -178 179 0
c gate 180 96 -165 0
96 -180 0
-165 -180 0
-96 165 180 0
c gate 181 51 174 0
51 -181 0
174 -181 0
-51 -174 181 0
c gate 182 -36 -181 0
-36 -182 0
-181 -182 0
36 181 182 0
c gate 183 -180 182 0
-180 -183 0
182 -183 0
180 -182 183 0
c gate 184 -179 -183 0
-179 -184 0
-183 -184 0
179 183 184 0
c gate 185 36 49 0
36 -185 0
49 -185 0
-36 -49 185 0
c gate 186 -95 185 0
-95 -186 0
185 -186 0
95 -185 186 0
c gate 187 -104 -186 0
-104 -187 0
-186 -187 0
104 186 187 0
c gate 188 76 -187 0
76 -188 0
-187 -188 0
-76 187 188 0
c gate 189 -165 188 0
-165 -189 0
188 -189 0
165 -188 189 0
c gate 190 165 -188 0
165 -190 0
-188 -190 0
-165 188 190 0
c gate 191 -189 -190 0
-189 -191 0
-190 -191 0
189 190 191 0
c gate 192 -55 -107 0
-55 -192 0
-107 -192 0
55 107 192 0
c gate 193 136 -192 0
136 -193 0
-192 -193 0
-136 192 193 0
c gate 194 25 100 0
25 -194 0
100 -194 0
-25 -100 194 0
c gate 195 -136 194 0
-136 -195 0
194 -195 0
136 -194 195 0
c gate 196 -25 -107 0
-25 -196 0
-107 -196 0
25 107 196 0
c gate 197 76 -196 0
76 -197 0
-196 -197 0
-76 196 197 0
c gate 198 -195 197 0
-195 -198 0
197 -198 0
195 -197 198 0
c gate 199 -193 198 0
-193 -199 0
198 -199 0
193 -198 199 0
c gate 200 92 -102 0
92 -200 0
-102 -200 0
-92 102 200 0
c gate 201 6 -76 0
6 -201 0
-76 -201 0
-6 76 201 0
c gate 202 -3 6 0
-3 -202 0
6 -202 0
3 -6 202 0
c gate 203 -58 -202 0
-58 -203 0
-202 -203 0
58 202 203 0
c gate 204 -201 203 0
-201 -204 0
203 -204 0
201 -203 204 0
c gate 205 -103 204 0
-103 -205 0
204 -205 0
103 -204 205 0
c gate 206 134 205 0
134 -206 0
205 -206 0
-134 -205 206 0
c gate 207 -200 -206 0
-200 -207 0
-206 -207 0
200 206 207 0
c gate 208 25 -207 0
25 -208 0
-207 -208 0
-25 207 208 0
c gate 209 -125 134 0
-125 -209 0
134 -209 0
125 -134 209 0
c gate 210 53 197 0
53 -210 0
197 -210 0
-53 -197 210 0
c gate 211 -209 210 0
-209 -211 0
210 -211 0
209 -210 211 0
c gate 212 -208 -211 0
-208 -212 0
-211 -212 0
208 211 212 0
c gate 213 199 -212 0
199 -213 0
-212 -213 0
-199 212 213 0
c gate 214 -199 212 0
-199 -214 0
212 -214 0
199 -212 214 0
c gate 215 -213 -214 0
-213 -215 0
-214 -215 0
213 214 215 0
c gate 216 85 202 0
85 -216 0
202 -216 0
-85 -202 216 0
c gate 217 -57 -201 0
-57 -217 0
-201 -217 0
57 201 217 0
c gate 218 63 217 0
63 -218 0
217 -218 0
-63 -217 218 0
c gate 219 -3 76 0
-3 -219 0
76 -219 0
3 -76 219 0
c gate 220 -61 -219 0
-61 -220 0
-219 -220 0
61 219 220 0
c gate 221 -218 220 0
-218 -221 0
220 -221 0
218 -220 221 0
c gate 222 -209 -221 0
-209 -222 0
-221 -222 0
209 221 222 0
c gate 223 216 222 0
216 -223 0
222 -223 0
-216 -222 223 0
c gate 224 -216 -222 0
-216 -224 0
-222 -224 0
216 222 224 0
c gate 225 136 -224 0
136 -225 0
-224 -225 0
-136 224 225 0
c gate 226 -223 225 0
-223 -226 0
225 -226 0
223 -225 226 0
c gate 227 14 21 0
14 -227 0
21 -227 0
-14 -21 227 0
c gate 228 4 -227 0
4 -228 0
-227 -228 0
-4 227 228 0
c gate 229 -14 -21 0
-14 -229 0
-21 -229 0
14 21 229 0
c gate 230 -4 -229 0
-4 -230 0
-229 -230 0
4 229 230 0
c gate 231 45 -230 0
45 -231 0
-230 -231 0
-45 230 231 0
c gate 232 -228 231 0
-228 -232 0
231 -232 0
228 -231 232 0
c gate 233 21 -45 0
21 -233 0
-45 -233 0
-21 45 233 0
c gate 234 228 233 0
228 -234 0
233 -234 0
-228 -233 234 0
c gate 235 -232 -234 0
-232 -235 0
-234 -235 0
232 234 235 0
c gate 236 42 -235 0
42 -236 0
-235 -236 0
-42 235 236 0
c gate 237 -42 -45 0
-42 -237 0
-45 -237 0
42 45 237 0
c gate 238 4 229 0
4 -238 0
229 -238 0
-4 -229 238 0
c gate 239 -237 238 0
-237 -239 0
238 -239 0
237 -238 239 0
c gate 240 -236 -239 0
-236 -240 0
-239 -240 0
236 239 240 0
c gate 241 15 -237 0
15 -241 0
-237 -241 0
-15 237 241 0
c gate 242 42 45 0
42 -242 0
45 -242 0
-42 -45 242 0
c gate 243 -15 -242 0
-15 -243 0
-242 -243 0
15 242 243 0
c gate 244 -4 -243 0
-4 -244 0
-243 -244 0
4 243 244 0
c gate 245 -241 244 0
-241 -245 0
244 -245 0
241 -244 245 0
c gate 246 42 -245 0
42 -246 0
-245 -246 0
-42 245 246 0
c gate 247 227 -246 0
227 -247 0
-246 -247 0
-227 246 247 0
c gate 248 -4 -45 0
-4 -248 0
-45 -248 0
4 45 248 0
c gate 249 4 45 0
4 -249 0
45 -249 0
-4 -45 249 0
c gate 250 42 -249 0
42 -250 0
-249 -250 0
-42 249 250 0
c gate 251 -248 250 0
-248 -251 0
250 -251 0
248 -250 251 0
c gate 252 -42 248 0
-42 -252 0
248 -252 0
42 -248 252 0
c gate 253 -251 -252 0
-251 -253 0
-252 -253 0
251 252 253 0
c gate 254 -245 -253 0
-245 -254 0
-253 -254 0
245 253 254 0
c gate 255 -227 -229 0
-227 -255 0
-229 -255 0
227 229 255 0
c gate 256 -254 255 0
-254 -256 0
255 -256 0
254 -255 256 0
c gate 257 -45 -253 0
-45 -257 0
-253 -257 0
45 253 257 0
c gate 258 -21 242 0
-21 -258 0
242 -258 0
21 -242 258 0
c gate 259 21 -242 0
21 -259 0
-242 -259 0
-21 242 259 0
c gate 260 -14 15 0
-14 -260 0
15 -260 0
14 -15 260 0
c gate 261 -249 260 0
-249 -261 0
260 -261 0
249 -260 261 0
c gate 262 -259 261 0
-259 -262 0
261 -262 0
259 -261 262 0
c gate 263 -258 262 0
-258 -263 0
262 -263 0
258 -262 263 0
c gate 264 -257 263 0
-257 -264 0
263 -264 0
257 -263 264 0
c gate 265 -256 -264 0
-256 -265 0
-264 -265 0
256 264 265 0
c gate 266 -247 265 0
-247 -266 0
265 -266 0
247 -265 266 0
c gate 267 240 266 0
240 -267 0
266 -267 0
-240 -266 267 0
c gate 268 -14 -42 0
-14 -268 0
-42 -268 0
14 42 268 0
c gate 269 -9 -40 0
-9 -269 0
-40 -269 0
9 40 269 0
c gate 270 268 269 0
268 -270 0
269 -270 0
-268 -269 270 0
c gate 271 14 42 0
14 -271 0
42 -271 0
-14 -42 271 0
c gate 272 9 40 0
9 -272 0
40 -272 0
-9 -40 272 0
c gate 273 -2 -37 0
-2 -273 0
-37 -273 0
2 37 273 0
c gate 274 -272 273 0
-272 -274 0
273 -274 0
272 -273 274 0
c gate 275 -271 274 0
-271 -275 0
274 -275 0
271 -274 275 0
c gate 276 -270 -275 0
-270 -276 0
-275 -276 0
270 275 276 0
c gate 277 2 37 0
2 -277 0
37 -277 0
-2 -37 277 0
c gate 278 -268 -269 0
-268 -278 0
-269 -278 0
268 269 278 0
c gate 279 -277 -278 0
-277 -279 0
-278 -279 0
277 278 279 0
c gate 280 -276 279 0
-276 -280 0
279 -280 0
276 -279 280 0
c gate 281 37 272 0
37 -281 0
272 -281 0
-37 -272 281 0
c gate 282 -269 -281 0
-269 -282 0
-281 -282 0
269 281 282 0
c gate 283 -2 -282 0
-2 -283 0
-282 -283 0
2 282 283 0
c gate 284 9 -40 0
9 -284 0
-40 -284 0
-9 40 284 0
c gate 285 277 284 0
277 -285 0
284 -285 0
-277 -284 285 0
c gate 286 271 -285 0
271 -286 0
-285 -286 0
-271 285 286 0
c gate 287 -283 286 0
-283 -287 0
286 -287 0
283 -286 287 0
c gate 288 -280 -287 0
-280 -288 0
-287 -288 0
280 287 288 0
c gate 289 -35 50 0
-35 -289 0
50 -289 0
35 -50 289 0
c gate 290 -7 -18 0
-7 -290 0
-18 -290 0
7 18 290 0
c gate 291 -20 -31 0
-20 -291 0
-31 -291 0
20 31 291 0
c gate 292 290 291 0
290 -292 0
291 -292 0
-290 -291 292 0
c gate 293 -289 292 0
-289 -293 0
292 -293 0
289 -292 293 0
c gate 294 -288 293 0
-288 -294 0
293 -294 0
288 -293 294 0
c gate 295 -17 -22 0
-17 -295 0
-22 -295 0
17 22 295 0
c gate 296 -16 50 0
-16 -296 0
50 -296 0
16 -50 296 0
c gate 297 295 296 0
295 -297 0
296 -297 0
-295 -296 297 0
c gate 298 294 297 0
294 -298 0
297 -298 0
-294 -297 298 0
c gate 299 267 298 0
267 -299 0
298 -299 0
-267 -298 299 0
c gate 300 -37 283 0
-37 -300 0
283 -300 0
37 -283 300 0
c gate 301 22 -277 0
22 -301 0
-277 -301 0
-22 277 301 0
c gate 302 272 301 0
272 -302 0
301 -302 0
-272 -301 302 0
c gate 303 -300 -302 0
-300 -303 0
-302 -303 0
300 302 303 0
c gate 304 299 -303 0
299 -304 0
-303 -304 0
-299 303 304 0
c gate 305 -17 -37 0
-17 -305 0
-37 -305 0
17 37 305 0
c gate 306 -18 -22 0
-18 -306 0
-22 -306 0
18 22 306 0
c gate 307 -7 -16 0
-7 -307 0
-16 -307 0
7 16 307 0
c gate 308 7 16 0
7 -308 0
16 -308 0
-7 -16 308 0
c gate 309 -18 308 0
-18 -309 0
308 -309 0
18 -308 309 0
c gate 310 -307 -309 0
-307 -310 0
-309 -310 0
307 309 310 0
c gate 311 -20 -310 0
-20 -311 0
-310 -311 0
20 310 311 0
c gate 312 306 311 0
306 -312 0
311 -312 0
-306 -311 312 0
c gate 313 -16 17 0
-16 -313 0
17 -313 0
16 -17 313 0
c gate 314 312 313 0
312 -314 0
313 -314 0
-312 -313 314 0
c gate 315 -306 -311 0
-306 -315 0
-311 -315 0
306 311 315 0
c gate 316 20 -307 0
20 -316 0
-307 -316 0
-20 307 316 0
c gate 317 -17 -316 0
-17 -317 0
-316 -317 0
17 316 317 0
c gate 318 -312 317 0
-312 -318 0
317 -318 0
312 -317 318 0
c gate 319 -315 318 0
-315 -319 0
318 -319 0
315 -318 319 0
c gate 320 -314 -319 0
-314 -320 0
-319 -320 0
314 319 320 0
c gate 321 17 37 0
17 -321 0
37 -321 0
-17 -37 321 0
c gate 322 -20 -321 0
-20 -322 0
-321 -322 0
20 321 322 0
c gate 323 -320 -322 0
-320 -323 0
-322 -323 0
320 322 323 0
c gate 324 -305 -323 0
-305 -324 0
-323 -324 0
305 323 324 0
c gate 325 16 20 0
16 -325 0
20 -325 0
-16 -20 325 0
c gate 326 305 -325 0
305 -326 0
-325 -326 0
-305 325 326 0
c gate 327 -7 -326 0
-7 -327 0
-326 -327 0
7 326 327 0
c gate 328 -324 327 0
-324 -328 0
327 -328 0
324 -327 328 0
c gate 329 -16 -20 0
-16 -329 0
-20 -329 0
16 20 329 0
c gate 330 -325 -329 0
-325 -330 0
-329 -330 0
325 329 330 0
c gate 331 -305 -314 0
-305 -331 0
-314 -331 0
305 314 331 0
c gate 332 7 305 0
7 -332 0
305 -332 0
-7 -305 332 0
c gate 333 -319 332 0
-319 -333 0
332 -333 0
319 -332 333 0
c gate 334 -331 -333 0
-331 -334 0
-333 -334 0
331 333 334 0
c gate 335 -330 -334 0
-330 -335 0
-334 -335 0
330 334 335 0
c gate 336 290 295 0
290 -336 0
295 -336 0
-290 -295 336 0
c gate 337 330 -336 0
330 -337 0
-336 -337 0
-330 336 337 0
c gate 338 -15 -21 0
-15 -338 0
-21 -338 0
15 21 338 0
c gate 339 248 338 0
248 -339 0
338 -339 0
-248 -338 339 0
c gate 340 -2 -31 0
-2 -340 0
-31 -340 0
2 31 340 0
c gate 341 270 340 0
270 -341 0
340 -341 0
-270 -340 341 0
c gate 342 339 341 0
339 -342 0
341 -342 0
-339 -341 342 0
c gate 343 -337 342 0
-337 -343 0
342 -343 0
337 -342 343 0
c gate 344 -335 343 0
-335 -344 0
343 -344 0
335 -343 344 0
c gate 345 -328 344 0
-328 -345 0
344 -345 0
328 -344 345 0
c gate 346 -2 -7 0
-2 -346 0
-7 -346 0
2 7 346 0
c gate 347 -22 -37 0
-22 -347 0
-37 -347 0
22 37 347 0
c gate 348 346 -347 0
346 -348 0
-347 -348 0
-346 347 348 0
c gate 349 -346 347 0
-346 -349 0
347 -349 0
346 -347 349 0
c gate 350 -348 -349 0
-348 -350 0
-349 -350 0
348 349 350 0
c gate 351 -1 35 0
-1 -351 0
35 -351 0
1 -35 351 0
c gate 352 50 351 0
50 -352 0
351 -352 0
-50 -351 352 0
c gate 353 -350 352 0
-350 -353 0
352 -353 0
350 -352 353 0
c gate 354 345 353 0
345 -354 0
353 -354 0
-345 -353 354 0
c gate 355 1 289 0
1 -355 0
289 -355 0
-1 -289 355 0
c gate 356 -345 355 0
-345 -356 0
355 -356 0
345 -355 356 0
c gate 357 -354 -356 0
-354 -357 0
-356 -357 0
354 356 357 0
c gate 358 304 -357 0
304 -358 0
-357 -358 0
-304 357 358 0
c gate 359 12 -13 0
12 -359 0
-13 -359 0
-12 13 359 0
c gate 360 -11 359 0
-11 -360 0
359 -360 0
11 -359 360 0
c gate 361 43 360 0
43 -361 0
360 -361 0
-43 -360 361 0
c gate 362 11 -39 0
11 -362 0
-39 -362 0
-11 39 362 0
c gate 363 -11 -41 0
-11 -363 0
-41 -363 0
11 41 363 0
c gate 364 -13 -363 0
-13 -364 0
-363 -364 0
13 363 364 0
c gate 365 -362 364 0
-362 -365 0
364 -365 0
362 -364 365 0
c gate 366 -12 -365 0
-12 -366 0
-365 -366 0
12 365 366 0
c gate 367 -361 -366 0
-361 -367 0
-366 -367 0
361 366 367 0
c gate 368 -11 12 0
-11 -368 0
12 -368 0
11 -12 368 0
c gate 369 11 -12 0
11 -369 0
-12 -369 0
-11 12 369 0
c gate 370 -368 -369 0
-368 -370 0
-369 -370 0
368 369 370 0
c gate 371 -13 -370 0
-13 -371 0
-370 -371 0
13 370 371 0
c gate 372 -368 -371 0
-368 -372 0
-371 -372 0
368 371 372 0
c gate 373 -359 -372 0
-359 -373 0
-372 -373 0
359 372 373 0
c gate 374 -48 373 0
-48 -374 0
373 -374 0
48 -373 374 0
c gate 375 11 -359 0
11 -375 0
-359 -375 0
-11 359 375 0
c gate 376 -13 -41 0
-13 -376 0
-41 -376 0
13 41 376 0
c gate 377 -11 -12 0
-11 -377 0
-12 -377 0
11 12 377 0
c gate 378 -376 377 0
-376 -378 0
377 -378 0
376 -377 378 0
c gate 379 -375 -378 0
-375 -379 0
-378 -379 0
375 378 379 0
c gate 380 -374 379 0
-374 -380 0
379 -380 0
374 -379 380 0
c gate 381 -361 380 0
-361 -381 0
380 -381 0
361 -380 381 0
c gate 382 8 -11 0
8 -382 0
-11 -382 0
-8 11 382 0
c gate 383 -46 382 0
-46 -383 0
382 -383 0
46 -382 383 0
c gate 384 -12 -46 0
-12 -384 0
-46 -384 0
12 46 384 0
c gate 385 28 -384 0
28 -385 0
-384 -385 0
-28 384 385 0
c gate 386 -368 -385 0
-368 -386 0
-385 -386 0
368 385 386 0
c gate 387 -383 386 0
-383 -387 0
386 -387 0
383 -386 387 0
c gate 388 381 -387 0
381 -388 0
-387 -388 0
-381 387 388 0
c gate 389 8 28 0
8 -389 0
28 -389 0
-8 -28 389 0
c gate 390 12 -389 0
12 -390 0
-389 -390 0
-12 389 390 0
c gate 391 46 -390 0
46 -391 0
-390 -391 0
-46 390 391 0
c gate 392 375 -391 0
375 -392 0
-391 -392 0
-375 391 392 0
c gate 393 -8 378 0
-8 -393 0
378 -393 0
8 -378 393 0
c gate 394 -392 -393 0
-392 -394 0
-393 -394 0
392 393 394 0
c gate 395 -388 394 0
-388 -395 0
394 -395 0
388 -394 395 0
c gate 396 -367 395 0
-367 -396 0
395 -396 0
367 -395 396 0
c gate 397 13 370 0
13 -397 0
370 -397 0
-13 -370 397 0
c gate 398 39 -371 0
39 -398 0
-371 -398 0
-39 371 398 0
c gate 399 -397 398 0
-397 -399 0
398 -399 0
397 -398 399 0
c gate 400 -362 -399 0
-362 -400 0
-399 -400 0
362 399 400 0
c gate 401 373 -400 0
373 -401 0
-400 -401 0
-373 400 401 0
c gate 402 -380 -401 0
-380 -402 0
-401 -402 0
380 401 402 0
c gate 403 -395 -402 0
-395 -403 0
-402 -403 0
395 402 403 0
c gate 404 -43 360 0
-43 -404 0
360 -404 0
43 -360 404 0
c gate 405 403 -404 0
403 -405 0
-404 -405 0
-403 404 405 0
c gate 406 -396 -405 0
-396 -406 0
-405 -406 0
396 405 406 0
c gate 407 359 -399 0
359 -407 0
-399 -407 0
-359 399 407 0
c gate 408 403 -407 0
403 -408 0
-407 -408 0
-403 407 408 0
c gate 409 11 -46 0
11 -409 0
-46 -409 0
-11 46 409 0
c gate 410 -28 -46 0
-28 -410 0
-46 -410 0
28 46 410 0
c gate 411 382 -410 0
382 -411 0
-410 -411 0
-382 410 411 0
c gate 412 28 46 0
28 -412 0
46 -412 0
-28 -46 412 0
c gate 413 -8 -412 0
-8 -413 0
-412 -413 0
8 412 413 0
c gate 414 -411 -413 0
-411 -414 0
-413 -414 0
411 413 414 0
c gate 415 381 414 0
381 -415 0
414 -415 0
-381 -414 415 0
c gate 416 -409 -415 0
-409 -416 0
-415 -416 0
409 415 416 0
c gate 417 -12 -416 0
-12 -417 0
-416 -417 0
12 416 417 0
c gate 418 -362 396 0
-362 -418 0
396 -418 0
362 -396 418 0
c gate 419 -417 418 0
-417 -419 0
418 -419 0
417 -418 419 0
c gate 420 -408 -419 0
-408 -420 0
-419 -420 0
408 419 420 0
c gate 421 406 -420 0
406 -421 0
-420 -421 0
-406 420 421 0
c gate 422 -358 -421 0
-358 -422 0
-421 -422 0
358 421 422 0
c gate 423 362 -392 0
362 -423 0
-392 -423 0
-362 392 423 0
c gate 424 -406 -423 0
-406 -424 0
-423 -424 0
406 423 424 0
c gate 425 420 424 0
420 -425 0
424 -425 0
-420 -424 425 0
c gate 426 22 289 0
22 -426 0
289 -426 0
-22 -289 426 0
c gate 427 267 338 0
267 -427 0
338 -427 0
-267 -338 427 0
c gate 428 -249 -298 0
-249 -428 0
-298 -428 0
249 298 428 0
c gate 429 -248 298 0
-248 -429 0
298 -429 0
248 -298 429 0
c gate 430 -428 -429 0
-428 -430 0
-429 -430 0
428 429 430 0
c gate 431 427 430 0
427 -431 0
430 -431 0
-427 -430 431 0
c gate 432 -37 431 0
-37 -432 0
431 -432 0
37 -431 432 0
c gate 433 426 -432 0
426 -433 0
-432 -433 0
-426 432 433 0
c gate 434 -289 431 0
-289 -434 0
431 -434 0
289 -431 434 0
c gate 435 -22 37 0
-22 -435 0
37 -435 0
22 -37 435 0
c gate 436 294 435 0
294 -436 0
435 -436 0
-294 -435 436 0
c gate 437 434 436 0
434 -437 0
436 -437 0
-434 -436 437 0
c gate 438 299 339 0
299 -438 0
339 -438 0
-299 -339 438 0
c gate 439 37 438 0
37 -439 0
438 -439 0
-37 -438 439 0
c gate 440 -426 -439 0
-426 -440 0
-439 -440 0
426 439 440 0
c gate 441 -437 -440 0
-437 -441 0
-440 -441 0
437 440 441 0
c gate 442 -433 441 0
-433 -442 0
441 -442 0
433 -441 442 0
c gate 443 -425 -442 0
-425 -443 0
-442 -443 0
425 442 443 0
c gate 444 422 443 0
422 -444 0
443 -444 0
-422 -443 444 0
c gate 445 -25 -122 0
-25 -445 0
-122 -445 0
25 122 445 0
c gate 446 23 -445 0
23 -446 0
-445 -446 0
-23 445 446 0
c gate 447 -23 -25 0
-23 -447 0
-25 -447 0
23 25 447 0
c gate 448 -76 -447 0
-76 -448 0
-447 -448 0
76 447 448 0
c gate 449 -446 448 0
-446 -449 0
448 -449 0
446 -448 449 0
c gate 450 95 449 0
95 -450 0
449 -450 0
-95 -449 450 0
c gate 451 437 -438 0
437 -451 0
-438 -451 0
-437 438 451 0
c gate 452 24 92 0
24 -452 0
92 -452 0
-24 -92 452 0
c gate 453 107 452 0
107 -453 0
452 -453 0
-107 -452 453 0
c gate 454 20 289 0
20 -454 0
289 -454 0
-20 -289 454 0
c gate 455 2 7 0
2 -455 0
7 -455 0
-2 -7 455 0
c gate 456 -50 455 0
-50 -456 0
455 -456 0
50 -455 456 0
c gate 457 -454 -456 0
-454 -457 0
-456 -457 0
454 456 457 0
c gate 458 21 -457 0
21 -458 0
-457 -458 0
-21 457 458 0
c gate 459 -27 -38 0
-27 -459 0
-38 -459 0
27 38 459 0
c gate 460 40 459 0
40 -460 0
459 -460 0
-40 -459 460 0
c gate 461 -17 35 0
-17 -461 0
35 -461 0
17 -35 461 0
c gate 462 -7 -9 0
-7 -462 0
-9 -462 0
7 9 462 0
c gate 463 23 -26 0
23 -463 0
-26 -463 0
-23 26 463 0
c gate 464 462 463 0
462 -464 0
463 -464 0
-462 -463 464 0
c gate 465 461 464 0
461 -465 0
464 -465 0
-461 -464 465 0
c gate 466 460 465 0
460 -466 0
465 -466 0
-460 -465 466 0
c gate 467 312 466 0
312 -467 0
466 -467 0
-312 -466 467 0
c gate 468 9 -306 0
9 -468 0
-306 -468 0
-9 306 468 0
c gate 469 -22 -35 0
-22 -469 0
-35 -469 0
22 35 469 0
c gate 470 22 35 0
22 -470 0
35 -470 0
-22 -35 470 0
c gate 471 -469 -470 0
-469 -471 0
-470 -471 0
469 470 471 0
c gate 472 468 471 0
468 -472 0
471 -472 0
-468 -471 472 0
c gate 473 14 -35 0
14 -473 0
-35 -473 0
-14 35 473 0
c gate 474 16 35 0
16 -474 0
35 -474 0
-16 -35 474 0
c gate 475 18 37 0
18 -475 0
37 -475 0
-18 -37 475 0
c gate 476 -474 475 0
-474 -476 0
475 -476 0
474 -475 476 0
c gate 477 -473 -476 0
-473 -477 0
-476 -477 0
473 476 477 0
c gate 478 -472 477 0
-472 -478 0
477 -478 0
472 -477 478 0
c gate 479 -467 478 0
-467 -479 0
478 -479 0
467 -478 479 0
c gate 480 50 -479 0
50 -480 0
-479 -480 0
-50 479 480 0
c gate 481 -458 -480 0
-458 -481 0
-480 -481 0
458 480 481 0
c gate 482 345 -481 0
345 -482 0
-481 -482 0
-345 481 482 0
c gate 483 -453 -482 0
-453 -483 0
-482 -483 0
453 482 483 0
c gate 484 -451 483 0
-451 -484 0
483 -484 0
451 -483 484 0
c gate 485 -450 484 0
-450 -485 0
484 -485 0
450 -484 485 0
c gate 486 444 485 0
444 -486 0
485 -486 0
-444 -485 486 0
c gate 487 -40 -308 0
-40 -487 0
-308 -487 0
40 308 487 0
c gate 488 438 -487 0
438 -488 0
-487 -488 0
-438 487 488 0
c gate 489 16 289 0
16 -489 0
289 -489 0
-16 -289 489 0
c gate 490 -488 -489 0
-488 -490 0
-489 -490 0
488 489 490 0
c gate 491 -16 31 0
-16 -491 0
31 -491 0
16 -31 491 0
c gate 492 -7 491 0
-7 -492 0
491 -492 0
7 -491 492 0
c gate 493 487 -491 0
487 -493 0
-491 -493 0
-487 491 493 0
c gate 494 -492 -493 0
-492 -494 0
-493 -494 0
492 493 494 0
c gate 495 431 494 0
431 -495 0
494 -495 0
-431 -494 495 0
c gate 496 -16 -431 0
-16 -496 0
-431 -496 0
16 431 496 0
c gate 497 289 -496 0
289 -497 0
-496 -497 0
-289 496 497 0
c gate 498 -495 497 0
-495 -498 0
497 -498 0
495 -497 498 0
c gate 499 -31 40 0
-31 -499 0
40 -499 0
31 -40 499 0
c gate 500 307 499 0
307 -500 0
499 -500 0
-307 -499 500 0
c gate 501 434 500 0
434 -501 0
500 -501 0
-434 -500 501 0
c gate 502 -498 -501 0
-498 -502 0
-501 -502 0
498 501 502 0
c gate 503 -490 -502 0
-490 -503 0
-502 -503 0
490 502 503 0
c gate 504 490 502 0
490 -504 0
502 -504 0
-490 -502 504 0
c gate 505 -503 -504 0
-503 -505 0
-504 -505 0
503 504 505 0
c gate 506 -3 -6 0
-3 -506 0
-6 -506 0
3 6 506 0
c gate 507 -25 506 0
-25 -507 0
506 -507 0
25 -506 507 0
c gate 508 24 -507 0
24 -508 0
-507 -508 0
-24 507 508 0
c gate 509 -23 122 0
-23 -509 0
122 -509 0
23 -122 509 0
c gate 510 -24 -509 0
-24 -510 0
-509 -510 0
24 509 510 0
c gate 511 -508 -510 0
-508 -511 0
-510 -511 0
508 510 511 0
c gate 512 -103 511 0
-103 -512 0
511 -512 0
103 -511 512 0
c gate 513 -24 103 0
-24 -513 0
103 -513 0
24 -103 513 0
c gate 514 25 -122 0
25 -514 0
-122 -514 0
-25 122 514 0
c gate 515 -107 514 0
-107 -515 0
514 -515 0
107 -514 515 0
c gate 516 -513 515 0
-513 -516 0
515 -516 0
513 -515 516 0
c gate 517 -512 -516 0
-512 -517 0
-516 -517 0
512 516 517 0
c gate 518 162 -517 0
162 -518 0
-517 -518 0
-162 517 518 0
c gate 519 -505 -518 0
-505 -519 0
-518 -519 0
505 518 519 0
c gate 520 486 519 0
486 -520 0
519 -520 0
-486 -519 520 0
c gate 521 17 50 0
17 -521 0
50 -521 0
-17 -50 521 0
c gate 522 -17 -50 0
-17 -522 0
-50 -522 0
17 50 522 0
c gate 523 19 -522 0
19 -523 0
-522 -523 0
-19 522 523 0
c gate 524 -521 523 0
-521 -524 0
523 -524 0
521 -523 524 0
c gate 525 35 521 0
35 -525 0
521 -525 0
-35 -521 525 0
c gate 526 431 525 0
431 -526 0
525 -526 0
-431 -525 526 0
c gate 527 -524 -526 0
-524 -527 0
-526 -527 0
524 526 527 0
c gate 528 345 -527 0
345 -528 0
-527 -528 0
-345 527 528 0
c gate 529 -19 -461 0
-19 -529 0
-461 -529 0
19 461 529 0
c gate 530 -431 -529 0
-431 -530 0
-529 -530 0
431 529 530 0
c gate 531 -528 -530 0
-528 -531 0
-530 -531 0
528 530 531 0
c gate 532 -345 461 0
-345 -532 0
461 -532 0
345 -461 532 0
c gate 533 19 -532 0
19 -533 0
-532 -533 0
-19 532 533 0
c gate 534 -438 461 0
-438 -534 0
461 -534 0
438 -461 534 0
c gate 535 -533 -534 0
-533 -535 0
-534 -535 0
533 534 535 0
c gate 536 -531 535 0
-531 -536 0
535 -536 0
531 -535 536 0
c gate 537 -35 45 0
-35 -537 0
45 -537 0
35 -45 537 0
c gate 538 304 537 0
304 -538 0
537 -538 0
-304 -537 538 0
c gate 539 -536 -538 0
-536 -539 0
-538 -539 0
536 538 539 0
c gate 540 50 -539 0
50 -540 0
-539 -540 0
-50 539 540 0
c gate 541 50 -535 0
50 -541 0
-535 -541 0
-50 535 541 0
c gate 542 19 345 0
19 -542 0
345 -542 0
-19 -345 542 0
c gate 543 -17 -542 0
-17 -543 0
-542 -543 0
17 542 543 0
c gate 544 -50 431 0
-50 -544 0
431 -544 0
50 -431 544 0
c gate 545 -543 544 0
-543 -545 0
544 -545 0
543 -544 545 0
c gate 546 -541 -545 0
-541 -546 0
-545 -546 0
541 545 546 0
c gate 547 531 -546 0
531 -547 0
-546 -547 0
-531 546 547 0
c gate 548 -540 -547 0
-540 -548 0
-547 -548 0
540 547 548 0
c gate 549 520 548 0
520 -549 0
548 -549 0
-520 -548 549 0
c gate 550 -226 549 0
-226 -550 0
549 -550 0
226 -549 550 0
c gate 551 -215 550 0
-215 -551 0
550 -551 0
215 -550 551 0
c gate 552 -191 551 0
-191 -552 0
551 -552 0
191 -551 552 0
c gate 553 -184 552 0
-184 -553 0
552 -553 0
184 -552 553 0
c PO
-553 0
